[[284,1361,1859,2677,3572,4307,4699,5112,5745,7048,7626,8147,8512,9423,9654,9974],[713,1683,2151,2594,3435,4163,4531,5539,6394,6677,7443,8034,8368,8802,9489,9984],[28,585,2067,2901,3016,3367,4517,4874,5466,5749,6591,6757,7454,8109,8924,9619,9976],[190,1030,2223,2576,2927,3069,3490,4199,4985,5474,6666,7379,8158,8646,9435,9680,9873],[664,921,1194,1359,1598,1775,2245,2523,3079,3881,4560,4745,5566,6067,7740,8397,8785],[817,1193,1456,1875,2626,3010,3837,4472,5029,6481,6671,7422,8009,8241,9449,9684,9728]]